# Solution for model r10_t9_m3_1 Batch Number: 1
# Finished Task: 9 / 9
# Makespan: 491.0, Total Distance: 82.0, Total Time: 2.7858
# R O S F Batch
0 0 -1 0.0 0.0 -1
1 1 13 0.0 0.0 -1
2 2 -1 0.0 0.0 -1
3 3 16 0.0 0.0 -1
4 4 17 0.0 0.0 -1
5 5 15 0.0 0.0 -1
6 6 18 0.0 0.0 -1
7 7 -1 0.0 0.0 -1
8 8 -1 0.0 0.0 -1
9 9 12 0.0 0.0 -1
10 3 -1 415.0 449.0 0
11 3 14 321.0 345.0 0
12 9 -1 462.0 491.0 0
13 1 -1 408.0 436.0 0
14 3 10 387.0 415.0 0
15 5 -1 415.0 442.0 0
16 3 11 293.0 321.0 0
17 4 -1 471.0 491.0 0
18 6 -1 462.0 491.0 0
